* ENCODING=ISO-8859-1
NAME          master_ILP.lp
ROWS
 N  obj1    
 G  w.0     
 G  w.1     
 G  w.2     
 G  r.0     
 G  r.1     
 G  r.2     
 E  t.0     
 E  t.1     
 E  t.2     
 E  t.3     
 E  t.4     
 E  t.5     
 E  t.6     
 E  t.7     
COLUMNS
    x.000     obj1                        32.08
    x.000     w.0                             1
    x.000     r.0                             1
    x.000     t.0                             1
    x.001     obj1                       100.25
    x.001     w.0                             1
    x.001     r.1                             1
    x.001     t.0                             1
    x.002     obj1                        20.05
    x.002     w.0                             1
    x.002     r.2                             1
    x.002     t.0                             1
    x.100     obj1                         80.2
    x.100     w.1                             1
    x.100     r.0                             1
    x.100     t.0                             1
    x.101     obj1                       108.27
    x.101     w.1                             1
    x.101     r.1                             1
    x.101     t.0                             1
    x.102     obj1                       188.47
    x.102     w.1                             1
    x.102     r.2                             1
    x.102     t.0                             1
    x.200     obj1                       124.31
    x.200     w.2                             1
    x.200     r.0                             1
    x.200     t.0                             1
    x.201     obj1                        68.17
    x.201     w.2                             1
    x.201     r.1                             1
    x.201     t.0                             1
    x.202     obj1                        32.08
    x.202     w.2                             1
    x.202     r.2                             1
    x.202     t.0                             1
    x.010     obj1                       193.14
    x.010     w.0                             1
    x.010     r.0                             1
    x.010     t.1                             1
    x.011     obj1                         33.3
    x.011     w.0                             1
    x.011     r.1                             1
    x.011     t.1                             1
    x.012     obj1                       206.46
    x.012     w.0                             1
    x.012     r.2                             1
    x.012     t.1                             1
    x.110     obj1                       326.34
    x.110     w.1                             1
    x.110     r.0                             1
    x.110     t.1                             1
    x.111     obj1                        199.8
    x.111     w.1                             1
    x.111     r.1                             1
    x.111     t.1                             1
    x.112     obj1                       139.86
    x.112     w.1                             1
    x.112     r.2                             1
    x.112     t.1                             1
    x.210     obj1                       239.76
    x.210     w.2                             1
    x.210     r.0                             1
    x.210     t.1                             1
    x.211     obj1                        59.94
    x.211     w.2                             1
    x.211     r.1                             1
    x.211     t.1                             1
    x.212     obj1                       206.46
    x.212     w.2                             1
    x.212     r.2                             1
    x.212     t.1                             1
    x.020     obj1                       233.28
    x.020     w.0                             1
    x.020     r.0                             1
    x.020     t.2                             1
    x.021     obj1                        43.74
    x.021     w.0                             1
    x.021     r.1                             1
    x.021     t.2                             1
    x.022     obj1                       102.06
    x.022     w.0                             1
    x.022     r.2                             1
    x.022     t.2                             1
    x.120     obj1                         97.2
    x.120     w.1                             1
    x.120     r.0                             1
    x.120     t.2                             1
    x.121     obj1                        87.48
    x.121     w.1                             1
    x.121     r.1                             1
    x.121     t.2                             1
    x.122     obj1                       140.94
    x.122     w.1                             1
    x.122     r.2                             1
    x.122     t.2                             1
    x.220     obj1                       204.12
    x.220     w.2                             1
    x.220     r.0                             1
    x.220     t.2                             1
    x.221     obj1                       150.66
    x.221     w.2                             1
    x.221     r.1                             1
    x.221     t.2                             1
    x.222     obj1                        38.88
    x.222     w.2                             1
    x.222     r.2                             1
    x.222     t.2                             1
    x.030     obj1                        31.36
    x.030     w.0                             1
    x.030     r.0                             1
    x.030     t.3                             1
    x.031     obj1                        35.84
    x.031     w.0                             1
    x.031     r.1                             1
    x.031     t.3                             1
    x.032     obj1                        53.76
    x.032     w.0                             1
    x.032     r.2                             1
    x.032     t.3                             1
    x.130     obj1                       215.04
    x.130     w.1                             1
    x.130     r.0                             1
    x.130     t.3                             1
    x.131     obj1                        26.88
    x.131     w.1                             1
    x.131     r.1                             1
    x.131     t.3                             1
    x.132     obj1                        98.56
    x.132     w.1                             1
    x.132     r.2                             1
    x.132     t.3                             1
    x.230     obj1                       165.76
    x.230     w.2                             1
    x.230     r.0                             1
    x.230     t.3                             1
    x.231     obj1                        156.8
    x.231     w.2                             1
    x.231     r.1                             1
    x.231     t.3                             1
    x.232     obj1                       165.76
    x.232     w.2                             1
    x.232     r.2                             1
    x.232     t.3                             1
    x.040     obj1                        71.36
    x.040     w.0                             1
    x.040     r.0                             1
    x.040     t.4                             1
    x.041     obj1                        35.68
    x.041     w.0                             1
    x.041     r.1                             1
    x.041     t.4                             1
    x.042     obj1                        95.89
    x.042     w.0                             1
    x.042     r.2                             1
    x.042     t.4                             1
    x.140     obj1                        15.61
    x.140     w.1                             1
    x.140     r.0                             1
    x.140     t.4                             1
    x.141     obj1                        86.97
    x.141     w.1                             1
    x.141     r.1                             1
    x.141     t.4                             1
    x.142     obj1                        86.97
    x.142     w.1                             1
    x.142     r.2                             1
    x.142     t.4                             1
    x.240     obj1                        31.22
    x.240     w.2                             1
    x.240     r.0                             1
    x.240     t.4                             1
    x.241     obj1                        69.13
    x.241     w.2                             1
    x.241     r.1                             1
    x.241     t.4                             1
    x.242     obj1                         66.9
    x.242     w.2                             1
    x.242     r.2                             1
    x.242     t.4                             1
    x.050     obj1                       164.43
    x.050     w.0                             1
    x.050     r.0                             1
    x.050     t.5                             1
    x.051     obj1                       237.51
    x.051     w.0                             1
    x.051     r.1                             1
    x.051     t.5                             1
    x.052     obj1             6.09000000000001
    x.052     w.0                             1
    x.052     r.2                             1
    x.052     t.5                             1
    x.150     obj1                       274.05
    x.150     w.1                             1
    x.150     r.0                             1
    x.150     t.5                             1
    x.151     obj1                        73.08
    x.151     w.1                             1
    x.151     r.1                             1
    x.151     t.5                             1
    x.152     obj1                        18.27
    x.152     w.1                             1
    x.152     r.2                             1
    x.152     t.5                             1
    x.250     obj1                       274.05
    x.250     w.2                             1
    x.250     r.0                             1
    x.250     t.5                             1
    x.251     obj1                        42.63
    x.251     w.2                             1
    x.251     r.1                             1
    x.251     t.5                             1
    x.252     obj1                       158.34
    x.252     w.2                             1
    x.252     r.2                             1
    x.252     t.5                             1
    x.060     obj1                       268.62
    x.060     w.0                             1
    x.060     r.0                             1
    x.060     t.6                             1
    x.061     obj1                       301.18
    x.061     w.0                             1
    x.061     r.1                             1
    x.061     t.6                             1
    x.062     obj1                       341.88
    x.062     w.0                             1
    x.062     r.2                             1
    x.062     t.6                             1
    x.160     obj1                       170.94
    x.160     w.1                             1
    x.160     r.0                             1
    x.160     t.6                             1
    x.161     obj1                       195.36
    x.161     w.1                             1
    x.161     r.1                             1
    x.161     t.6                             1
    x.162     obj1                       105.82
    x.162     w.1                             1
    x.162     r.2                             1
    x.162     t.6                             1
    x.260     obj1                        122.1
    x.260     w.2                             1
    x.260     r.0                             1
    x.260     t.6                             1
    x.261     obj1                       358.16
    x.261     w.2                             1
    x.261     r.1                             1
    x.261     t.6                             1
    x.262     obj1                        203.5
    x.262     w.2                             1
    x.262     r.2                             1
    x.262     t.6                             1
    x.070     obj1                       231.93
    x.070     w.0                             1
    x.070     r.0                             1
    x.070     t.7                             1
    x.071     obj1                       309.24
    x.071     w.0                             1
    x.071     r.1                             1
    x.071     t.7                             1
    x.072     obj1                       377.96
    x.072     w.0                             1
    x.072     r.2                             1
    x.072     t.7                             1
    x.170     obj1                       103.08
    x.170     w.1                             1
    x.170     r.0                             1
    x.170     t.7                             1
    x.171     obj1                        51.54
    x.171     w.1                             1
    x.171     r.1                             1
    x.171     t.7                             1
    x.172     obj1                       266.29
    x.172     w.1                             1
    x.172     r.2                             1
    x.172     t.7                             1
    x.270     obj1                       206.16
    x.270     w.2                             1
    x.270     r.0                             1
    x.270     t.7                             1
    x.271     obj1                        171.8
    x.271     w.2                             1
    x.271     r.1                             1
    x.271     t.7                             1
    x.272     obj1                         85.9
    x.272     w.2                             1
    x.272     r.2                             1
    x.272     t.7                             1
    y.0       obj1                          401
    y.0       t.0                             1
    y.1       obj1                          666
    y.1       t.1                             1
    y.2       obj1                          486
    y.2       t.2                             1
    y.3       obj1                          448
    y.3       t.3                             1
    y.4       obj1                          223
    y.4       t.4                             1
    y.5       obj1                          609
    y.5       t.5                             1
    y.6       obj1                          814
    y.6       t.6                             1
    y.7       obj1                          859
    y.7       t.7                             1
RHS
    rhs       t.0                             1
    rhs       t.1                             1
    rhs       t.2                             1
    rhs       t.3                             1
    rhs       t.4                             1
    rhs       t.5                             1
    rhs       t.6                             1
    rhs       t.7                             1
RANGES
    rng       w.0                             1
    rng       w.1                             1
    rng       w.2                             1
    rng       r.0                             8
    rng       r.1                             8
    rng       r.2                             8
BOUNDS
 UP bnd       x.000                           1
 UP bnd       x.001                           1
 UP bnd       x.002                           1
 UP bnd       x.100                           1
 UP bnd       x.101                           1
 UP bnd       x.102                           1
 UP bnd       x.200                           1
 UP bnd       x.201                           1
 UP bnd       x.202                           1
 UP bnd       x.010                           1
 UP bnd       x.011                           1
 UP bnd       x.012                           1
 UP bnd       x.110                           1
 UP bnd       x.111                           1
 UP bnd       x.112                           1
 UP bnd       x.210                           1
 UP bnd       x.211                           1
 UP bnd       x.212                           1
 UP bnd       x.020                           1
 UP bnd       x.021                           1
 UP bnd       x.022                           1
 UP bnd       x.120                           1
 UP bnd       x.121                           1
 UP bnd       x.122                           1
 UP bnd       x.220                           1
 UP bnd       x.221                           1
 UP bnd       x.222                           1
 UP bnd       x.030                           1
 UP bnd       x.031                           1
 UP bnd       x.032                           1
 UP bnd       x.130                           1
 UP bnd       x.131                           1
 UP bnd       x.132                           1
 UP bnd       x.230                           1
 UP bnd       x.231                           1
 UP bnd       x.232                           1
 UP bnd       x.040                           1
 UP bnd       x.041                           1
 UP bnd       x.042                           1
 UP bnd       x.140                           1
 UP bnd       x.141                           1
 UP bnd       x.142                           1
 UP bnd       x.240                           1
 UP bnd       x.241                           1
 UP bnd       x.242                           1
 UP bnd       x.050                           1
 UP bnd       x.051                           1
 UP bnd       x.052                           1
 UP bnd       x.150                           1
 UP bnd       x.151                           1
 UP bnd       x.152                           1
 UP bnd       x.250                           1
 UP bnd       x.251                           1
 UP bnd       x.252                           1
 UP bnd       x.060                           1
 UP bnd       x.061                           1
 UP bnd       x.062                           1
 UP bnd       x.160                           1
 UP bnd       x.161                           1
 UP bnd       x.162                           1
 UP bnd       x.260                           1
 UP bnd       x.261                           1
 UP bnd       x.262                           1
 UP bnd       x.070                           1
 UP bnd       x.071                           1
 UP bnd       x.072                           1
 UP bnd       x.170                           1
 UP bnd       x.171                           1
 UP bnd       x.172                           1
 UP bnd       x.270                           1
 UP bnd       x.271                           1
 UP bnd       x.272                           1
 UP bnd       y.0                             1
 UP bnd       y.1                             1
 UP bnd       y.2                             1
 UP bnd       y.3                             1
 UP bnd       y.4                             1
 UP bnd       y.5                             1
 UP bnd       y.6                             1
 UP bnd       y.7                             1
ENDATA
